Code/Conference_Management.lp
\ Using Xpress-MP extensions
Maximize
 84 decVar(1) + 84 decVar(2) + 195 decVar(3) + 68 decVar(4) + 99 decVar(5) + 
86 decVar(6) + 151 decVar(7) + 351 decVar(8) + 72 decVar(9) + 94 decVar(10) + 
637 decVar(11) + 400 decVar(12) + 59 decVar(13) + 159 decVar(14) + 66 decVar(15) + 
73 decVar(16) + 67 decVar(17) + 49 decVar(18) + 101 decVar(19) + 115 decVar(20) + 
62 decVar(21) + 180 decVar(22) + 253 decVar(23) + 272 decVar(24) + 143 decVar(25) + 
86 decVar(26) + 55 decVar(27) + 61 decVar(28) + 67 decVar(29) + 135 decVar(30) + 
40 decVar(31) + 171 decVar(32) + 140 decVar(33) + 122 decVar(34) + 140 decVar(35) + 
435 decVar(36) + 75 decVar(37) + 118 decVar(38) + 35 decVar(39) + 70 decVar(40) + 
204 decVar(41) + 180 decVar(42) + 108 decVar(43) + 237 decVar(44) + 184 decVar(45) + 
140 decVar(46) + 107 decVar(47) + 100 decVar(48) + 262 decVar(49) + 109 decVar(50) + 
327 decVar(51) + 289 decVar(52) + 176 decVar(53) + 512 decVar(54) + 97 decVar(55) + 
74 decVar(56) + 212 decVar(57) + 172 decVar(58) + 593 decVar(59) + 773 decVar(60) + 
103 decVar(61) + 58 decVar(62) + 76 decVar(63) + 476 decVar(64) + 84 decVar(65) + 
58 decVar(66) + 242 decVar(67) + 80 decVar(68) + 275 decVar(69) + 2425 decVar(70) + 
57 decVar(71) + 75 decVar(72) + 87 decVar(73) + 87 decVar(74) + 55 decVar(75) + 
29 decVar(76) + 359 decVar(77) + 143 decVar(78) + 159 decVar(79) + 2603 decVar(80) + 
80 decVar(81) + 128 decVar(82) + 101 decVar(83) + 229 decVar(84)

Subject To
_R1: decVar(1) + decVar(2) + decVar(3) + decVar(4) + decVar(5) + decVar(6) + 
decVar(7) + decVar(8) + decVar(9) + decVar(10) + decVar(11) + decVar(12) + decVar(13) + 
decVar(14) + decVar(15) + decVar(16) + decVar(17) + decVar(18) + decVar(19) + 
decVar(20) + decVar(21) + decVar(22) + decVar(23) + decVar(24) + decVar(25) + 
decVar(26) + decVar(27) + decVar(28) + decVar(29) + decVar(30) + decVar(31) + 
decVar(32) + decVar(33) + decVar(34) + decVar(35) + decVar(36) + decVar(37) + 
decVar(38) + decVar(39) + decVar(40) + decVar(41) + decVar(42) + decVar(43) + 
decVar(44) + decVar(45) + decVar(46) + decVar(47) + decVar(48) + decVar(49) + 
decVar(50) + decVar(51) + decVar(52) + decVar(53) + decVar(54) + decVar(55) + 
decVar(56) + decVar(57) + decVar(58) + decVar(59) + decVar(60) + decVar(61) + 
decVar(62) + decVar(63) + decVar(64) + decVar(65) + decVar(66) + decVar(67) + 
decVar(68) + decVar(69) + decVar(70) + decVar(71) + decVar(72) + decVar(73) + 
decVar(74) + decVar(75) + decVar(76) + decVar(77) + decVar(78) + decVar(79) + 
decVar(80) + decVar(81) + decVar(82) + decVar(83) + decVar(84) = 200
AvgRating: 0.02 decVar(1) + 0.0166667 decVar(4) + 0.02 decVar(5) + 0.0166667 decVar(6) + 
0.02 decVar(7) + 0.0266667 decVar(8) + 0.0166667 decVar(9) + 0.02 decVar(10) + 
0.0233333 decVar(11) + 0.0266667 decVar(12) + 0.02 decVar(13) + 0.0233333 decVar(14) + 
0.02 decVar(15) + 0.02 decVar(17) + 0.0233333 decVar(18) + 0.02 decVar(19) + 
0.02 decVar(20) + 0.0166667 decVar(21) + 0.0266667 decVar(22) + 0.03 decVar(23) + 
0.0266667 decVar(24) + 0.0233333 decVar(25) + 0.0166667 decVar(26) + 0.0133333 decVar(27) + 
0.02 decVar(28) + 0.02 decVar(30) + 0.02 decVar(31) + 0.02 decVar(32) + 0.0166667 decVar(33) + 
0.02 decVar(34) + 0.0233333 decVar(35) + 0.0266667 decVar(36) + 0.02 decVar(38) + 
0.0166667 decVar(39) + 0.0166667 decVar(40) + 0.02 decVar(41) + 0.0166667 decVar(45) + 
0.02 decVar(46) + 0.0166667 decVar(47) + 0.02 decVar(48) + 0.03 decVar(49) + 
0.0166667 decVar(50) + 0.0166667 decVar(51) + 0.0233333 decVar(52) + 0.0233333 decVar(53) + 
0.02 decVar(54) + 0.0233333 decVar(56) + 0.02 decVar(57) + 0.0233333 decVar(60) + 
0.02 decVar(61) + 0.0233333 decVar(62) + 0.02 decVar(64) + 0.0133333 decVar(65) + 
0.02 decVar(66) + 0.0266667 decVar(67) + 0.0233333 decVar(68) + 0.0233333 decVar(69) + 
0.0266667 decVar(70) + 0.0166667 decVar(71) + 0.02 decVar(72) + 0.02 decVar(73) + 
0.0233333 decVar(75) + 0.0133333 decVar(76) + 0.02 decVar(78) + 0.0166667 decVar(80) + 
0.0266667 decVar(82) + 0.0233333 decVar(83) >= 3.3

Bounds
decVar(1) <= 16
decVar(2) <= 6
decVar(3) <= 16
decVar(5) <= 5
decVar(6) <= 6
decVar(8) <= 14
decVar(11) <= 7
decVar(12) <= 17
decVar(13) <= 22
decVar(14) <= 14
decVar(15) <= 16
decVar(16) <= 16
decVar(17) <= 17
decVar(21) <= 16
decVar(22) <= 33
decVar(23) <= 14
decVar(24) <= 17
decVar(25) <= 16
decVar(26) <= 6
decVar(28) <= 6
decVar(29) <= 6
decVar(30) <= 5
decVar(31) <= 33
decVar(32) <= 14
decVar(35) <= 16
decVar(36) <= 14
decVar(37) <= 16
decVar(40) <= 2
decVar(42) <= 14
decVar(43) <= 5
decVar(44) <= 16
decVar(49) <= 16
decVar(51) <= 22
decVar(53) <= 14
decVar(54) <= 5
decVar(55) <= 5
decVar(56) <= 16
decVar(57) <= 14
decVar(58) <= 6
decVar(59) <= 16
decVar(60) <= 14
decVar(61) <= 16
decVar(66) <= 6
decVar(68) <= 11
decVar(70) <= 17
decVar(71) <= 32
decVar(74) <= 16
decVar(75) <= 6
decVar(76) <= 12
decVar(77) <= 4
decVar(78) <= 6
decVar(79) <= 16
decVar(80) <= 6
decVar(81) <= 5
decVar(82) <= 16
decVar(83) <= 5
decVar(84) <= 22

Integers
decVar(1) decVar(2) decVar(3) decVar(4) decVar(5) decVar(6) decVar(7) decVar(8) 
decVar(9) decVar(10) decVar(11) decVar(12) decVar(13) decVar(14) decVar(15) 
decVar(16) decVar(17) decVar(18) decVar(19) decVar(20) decVar(21) decVar(22) 
decVar(23) decVar(24) decVar(25) decVar(26) decVar(27) decVar(28) decVar(29) 
decVar(30) decVar(31) decVar(32) decVar(33) decVar(34) decVar(35) decVar(36) 
decVar(37) decVar(38) decVar(39) decVar(40) decVar(41) decVar(42) decVar(43) 
decVar(44) decVar(45) decVar(46) decVar(47) decVar(48) decVar(49) decVar(50) 
decVar(51) decVar(52) decVar(53) decVar(54) decVar(55) decVar(56) decVar(57) 
decVar(58) decVar(59) decVar(60) decVar(61) decVar(62) decVar(63) decVar(64) 
decVar(65) decVar(66) decVar(67) decVar(68) decVar(69) decVar(70) decVar(71) 
decVar(72) decVar(73) decVar(74) decVar(75) decVar(76) decVar(77) decVar(78) 
decVar(79) decVar(80) decVar(81) decVar(82) decVar(83) decVar(84) 

End
